c preprocessed version of Toroidal6RegularGrid2dGraph_4_6, 24 vertices, 72 edges
p td 24 72
0 1
0 10
0 16
0 19
0 20
0 21
1 10
1 11
1 12
1 21
1 22
2 3
2 8
2 9
3 4
3 9
4 5
4 9
4 10
4 11
5 6
5 11
5 13
6 7
6 13
6 14
7 8
7 14
7 15
8 9
8 15
8 16
9 10
9 16
10 11
10 16
11 13
12 11
12 13
12 17
12 22
12 23
13 14
14 15
15 16
17 2
17 13
17 14
17 18
17 23
18 2
18 3
18 14
18 15
18 19
19 3
19 15
19 16
19 20
20 3
20 4
20 5
20 21
21 5
21 6
21 22
22 6
22 7
22 23
23 2
23 7
23 8
